32      4       
10      10      10      10      
0       0       0       0       0       2       2       31      
10      1       1       0       1       2       3       30      
3       1       0       1       5       1       4       
6       0       6       3       4       1       5       
4       6       0       5       4       2       6       13      
9       5       4       5       0       3       7       10      11      
2       4       2       4       0       2       8       23      
10      4       6       0       2       2       9       12      
5       4       7       0       4       2       14      20      
3       5       3       0       3       1       12      
1       4       6       9       0       1       12      
1       2       0       4       3       2       15      28      
6       3       3       0       3       5       18      23      26      27      29      
2       0       1       4       4       2       16      22      
6       6       0       3       4       2       17      22      
1       7       7       0       3       1       17      
5       6       6       1       0       3       18      26      27      
8       1       2       0       7       2       19      25      
10      6       6       2       0       1       21      
3       0       3       4       4       1       21      
9       1       2       0       5       1       24      
7       0       3       7       8       1       25      
9       5       7       4       0       1       28      
10      2       0       3       3       1       32      
6       0       2       1       6       1       32      
2       3       2       0       3       1       32      
9       4       6       5       0       1       32      
7       6       4       2       0       1       32      
1       4       0       8       4       1       32      
7       3       3       0       5       1       32      
2       7       0       5       3       1       32      
0       0       0       0       0       0       
